outputs/case_90.model.txt
bank_subsidiary_net_worth = 20000000
transaction_is_contract_for_payment_or_service = True
board_approval_ratio = 3/4
counterparty_is_fhc_and_responsible_or_major_shareholder = False
bank_subsidiary_single_related_party_transaction_amount = 2000000
transaction_is_invest_or_purchase_securities = False
counterparty_is_bank_insurance_securities_subsidiary_or_responsible = False
transaction_is_purchase_real_estate_or_other_assets = False
transaction_is_agent_broker_or_commission_service = False
counterparty_is_affiliated_company_and_responsible_or_major_shareholder = False
transaction_is_sale_securities_real_estate_or_other_assets = False
transaction_involves_related_third_party = True
bank_subsidiary_all_related_parties_transaction_amount = 2500000
counterparty_is_responsible_or_major_shareholder_business_or_enterprise = True
board_attendance_ratio = 6666666667/10000000000
transaction_involves_bank_subsidiary_negotiable_certificate = False
violation_45 = False
internal_handling_established = True
violation_60_14 = False
internal_control_and_audit_ok = True
internal_handling_ok = True
bank_subsidiary_all_related_parties_limit_ok = True
internal_control_executed = True
non_credit_transaction_counterparty_type = 1
non_credit_transaction_type = 1
non_credit_transaction_conditions_met = True
non_credit_transaction_compliance = True
excluded_securities_ok = True
penalty = False
bank_subsidiary_single_related_party_limit_ok = True
internal_handling_executed = True
internal_control_established = True